(set-logic ALL)
(declare-fun var0 () String)
(assert (str.in_re var0 (re.++ (re.* (re.* (str.to_re "00"))) (re.++ (re.+ (re.* (str.to_re "1"))) (re.++ (re.union (re.* (str.to_re "22")) (re.* (str.to_re "33"))) (re.++ (re.* (re.* (str.to_re "4"))) (re.++ (re.+ (re.+ (str.to_re "555"))) (re.++ (re.* (re.+ (str.to_re "66"))) (re.++ (re.union (re.+ (str.to_re "777")) (re.+ (str.to_re "88"))) (re.++ (re.* (re.+ (str.to_re "9"))) (re.++ (re.* (re.union (str.to_re "a") (str.to_re "b"))) (re.++ (re.union (re.* (str.to_re "ccc")) (re.* (str.to_re "ddd"))) (re.++ (re.+ (re.* (str.to_re "ee"))) (re.++ (re.+ (re.union (str.to_re "f") (str.to_re "ggg"))) (re.++ (re.* (re.* (str.to_re "hhh"))) (re.++ (re.union (re.union (str.to_re "i") (str.to_re "j")) (re.union (str.to_re "kk") (str.to_re "ll"))) (re.++ (re.* (re.union (str.to_re "mm") (str.to_re "nn"))) (re.++ (re.union (re.union (str.to_re "o") (str.to_re "ppp")) (re.union (str.to_re "q") (str.to_re "rr"))) (re.++ (re.* (re.* (str.to_re "ss"))) (re.++ (re.* (re.* (str.to_re "tt"))) (re.++ (re.* (re.union (str.to_re "uuu") (str.to_re "vv"))) (re.++ (re.+ (re.+ (str.to_re "w"))) (re.++ (re.union (re.union (str.to_re "x") (str.to_re "y")) (re.union (str.to_re "z") (str.to_re "A"))) (re.++ (re.* (re.+ (str.to_re "B"))) (re.++ (re.+ (re.+ (str.to_re "C"))) (re.++ (re.* (re.union (str.to_re "DDD") (str.to_re "EE"))) (re.++ (re.* (re.+ (str.to_re "F"))) (re.++ (re.+ (re.+ (str.to_re "GGG"))) (re.++ (re.+ (re.* (str.to_re "HHH"))) (re.++ (re.* (re.+ (str.to_re "III"))) (re.++ (re.+ (re.+ (str.to_re "J"))) (re.++ (re.union (re.+ (str.to_re "KKK")) (re.+ (str.to_re "L"))) (re.++ (re.+ (re.+ (str.to_re "M"))) (re.++ (re.* (re.+ (str.to_re "NNN"))) (re.++ (re.+ (re.+ (str.to_re "O"))) (re.++ (re.union (re.+ (str.to_re "PP")) (re.+ (str.to_re "Q"))) (re.++ (re.+ (re.* (str.to_re "R"))) (re.++ (re.+ (re.* (str.to_re "SS"))) (re.++ (re.+ (re.union (str.to_re "TTT") (str.to_re "UU"))) (re.++ (re.* (re.* (str.to_re "VVV"))) (re.++ (re.+ (re.union (str.to_re "W") (str.to_re "XX"))) (re.++ (re.+ (re.* (str.to_re "YYY"))) (re.++ (re.+ (re.* (str.to_re "Z"))) (re.++ (re.* (re.union (str.to_re "!!!") (str.to_re """"))) (re.++ (re.union (re.union (str.to_re "###") (str.to_re "$$")) (re.union (str.to_re "%%%") (str.to_re "&&&"))) (re.++ (re.* (re.union (str.to_re "'") (str.to_re "("))) (re.++ (re.+ (re.+ (str.to_re ")"))) (re.++ (re.union (re.union (str.to_re "***") (str.to_re "+++")) (re.union (str.to_re ",,,") (str.to_re "--"))) (re.++ (re.union (re.union (str.to_re "..") (str.to_re "//")) (re.union (str.to_re ":") (str.to_re ";;;"))) (re.++ (re.* (re.union (str.to_re "<<<") (str.to_re "="))) (re.++ (re.* (re.+ (str.to_re ">>>"))) (re.++ (re.+ (re.+ (str.to_re "?"))) (re.+ (re.* (str.to_re "@@")))))))))))))))))))))))))))))))))))))))))))))))))))))))
(check-sat)